pair_style hybrid harmonic/cut
pair_coeff 1 1 harmonic/cut 1.001  4.9624
pair_coeff 2 2 harmonic/cut 1.001  4.9624
pair_coeff 1 2 none 


bond_style hybrid harmonic harmonic/shift/cut
bond_coeff 2 harmonic 1.001 2.86667626014
bond_coeff 1 harmonic 1.001 4.965228931415713
bond_coeff 3 harmonic/shift/cut 0.0000000001 4.9624           4.96239         
bond_coeff 4 harmonic/shift/cut 0.0000000001 4.9624           4.96239         
