log Si.log
units electron
dimension 2

processors * * *
boundary p p p
atom_style molecular

read_data ./input_files/Si.data

include "input_files/Si_potential.in"

thermo 0
thermo_style custom pe angles
thermo_modify line yaml

min_style sd
minimize 1.0e-6 0.0 1000000 10000000


