log ./output_files/lammps.log
units electron
dimension 2

processors * * *
boundary p p p
atom_style molecular

read_data ./input_files/lammps_files/lammps_network.txt

include ./input_files/lammps_files/lammps_potential.txt

thermo 0
thermo_style custom pe angles
thermo_modify line yaml

min_style sd
variable etol equal 1.0e-6
variable ftol equal 0.0
variable maxiter equal 1.0e6
variable maxeval equal 1.0e7
minimize ${etol} ${ftol} ${maxiter} ${maxeval}
